<?xml version = "1.0" encoding="UTF-8" standalone="yes"?>
<CPLEXSolution version="1.2">
 <header
   problemName="IloCplex"
   solutionName="p0"
   solutionIndex="-1"
   objectiveValue="234580"
   solutionTypeValue="3"
   solutionTypeString="primal"
   solutionStatusValue="127"
   solutionStatusString="integer feasible solution"
   solutionMethodString="mip"
   primalFeasible="0"
   dualFeasible="0"
   writeLevel="3"/>
 <quality
   epInt="1.0000000000000001e-05"
   epRHS="9.9999999999999995e-07"
   maxIntInfeas="0"
   maxPrimalInfeas="0"
   maxX="634"
   maxSlack="534"/>
 <variables>
  <variable index="1" value="634"/>
  <variable index="4" value="634"/>
  <variable index="5" value="634"/>
  <variable index="6" value="634"/>
  <variable index="8" value="634"/>
  <variable index="12" value="1"/>
  <variable index="207" value="1"/>
  <variable index="215" value="1"/>
  <variable index="348" value="1"/>
  <variable index="457" value="1"/>
  <variable index="604" value="1"/>
  <variable index="675" value="1"/>
  <variable index="714" value="1"/>
  <variable index="868" value="1"/>
  <variable index="965" value="1"/>
  <variable index="1044" value="1"/>
  <variable index="1146" value="1"/>
  <variable index="1308" value="1"/>
  <variable index="1406" value="1"/>
  <variable index="1482" value="1"/>
  <variable index="1527" value="1"/>
  <variable index="1699" value="1"/>
  <variable index="1809" value="1"/>
  <variable index="1820" value="1"/>
  <variable index="1922" value="1"/>
  <variable index="2031" value="1"/>
  <variable index="2128" value="1"/>
  <variable index="2264" value="1"/>
  <variable index="2395" value="1"/>
  <variable index="2419" value="1"/>
  <variable index="2605" value="1"/>
  <variable index="2686" value="1"/>
  <variable index="2730" value="1"/>
  <variable index="2869" value="1"/>
  <variable index="2996" value="1"/>
  <variable index="3018" value="1"/>
  <variable index="3161" value="1"/>
  <variable index="3233" value="1"/>
  <variable index="3402" value="1"/>
  <variable index="3445" value="1"/>
  <variable index="3598" value="1"/>
  <variable index="3658" value="1"/>
  <variable index="3777" value="1"/>
  <variable index="3859" value="1"/>
  <variable index="3962" value="1"/>
  <variable index="4040" value="1"/>
  <variable index="4113" value="1"/>
  <variable index="4226" value="1"/>
  <variable index="4310" value="1"/>
  <variable index="4424" value="1"/>
  <variable index="4553" value="1"/>
  <variable index="4680" value="1"/>
  <variable index="4752" value="1"/>
  <variable index="4881" value="1"/>
  <variable index="4974" value="1"/>
  <variable index="5103" value="1"/>
  <variable index="5170" value="1"/>
  <variable index="5287" value="1"/>
  <variable index="5342" value="1"/>
  <variable index="5485" value="1"/>
  <variable index="5567" value="1"/>
  <variable index="5625" value="1"/>
  <variable index="5792" value="1"/>
  <variable index="5879" value="1"/>
  <variable index="5978" value="1"/>
  <variable index="6032" value="1"/>
  <variable index="6151" value="1"/>
  <variable index="6236" value="1"/>
  <variable index="6384" value="1"/>
  <variable index="6429" value="1"/>
  <variable index="6588" value="1"/>
  <variable index="6635" value="1"/>
  <variable index="6723" value="1"/>
  <variable index="6894" value="1"/>
  <variable index="6954" value="1"/>
  <variable index="7060" value="1"/>
  <variable index="7149" value="1"/>
  <variable index="7243" value="1"/>
  <variable index="7366" value="1"/>
  <variable index="7497" value="1"/>
  <variable index="7563" value="1"/>
  <variable index="7691" value="1"/>
  <variable index="7773" value="1"/>
  <variable index="7900" value="1"/>
  <variable index="7916" value="1"/>
  <variable index="8055" value="1"/>
  <variable index="8141" value="1"/>
  <variable index="8250" value="1"/>
  <variable index="8338" value="1"/>
  <variable index="8417" value="1"/>
  <variable index="8521" value="1"/>
  <variable index="8693" value="1"/>
  <variable index="8772" value="1"/>
  <variable index="8901" value="1"/>
  <variable index="8937" value="1"/>
  <variable index="9090" value="1"/>
  <variable index="9156" value="1"/>
  <variable index="9211" value="1"/>
  <variable index="9334" value="1"/>
  <variable index="9476" value="1"/>
  <variable index="9589" value="1"/>
  <variable index="9647" value="1"/>
  <variable index="9739" value="1"/>
  <variable index="9883" value="1"/>
  <variable index="9971" value="1"/>
  <variable index="10011" value="1"/>
  <variable index="10014" value="1"/>
  <variable index="10015" value="1"/>
  <variable index="10016" value="1"/>
  <variable index="10018" value="1"/>
  <variable index="10020" value="634"/>
 </variables>
</CPLEXSolution>
